decision_x1=[0,2];
decision_x2=[0,2];
decision_x3=[0,2];
decision_x4=[0,2];
decision_x5=[0,2];
decision_x6=[0,2];
decision_x7=[0,2];
decision_x8=[0,2];
decision_x9=[0,2];
decision_x10=[0,2];
random_y1=[0,2];
random_y2=[0,2];
constraint_x2_x1=[
0,1,5.2|
0,2,9.2|
1,0,6.1|
1,2,8.6|
2,0,2.8|
2,1,1.3|
];
constraint_x3_x1=[
0,1,6.4|
0,2,0.73|
1,0,3.1|
1,2,9.7|
2,0,7.9|
2,1,0.092|
];
constraint_x4_x2=[
0,1,2.5|
0,2,2.9|
1,0,3.4|
1,2,0.83|
2,0,0.93|
2,1,8.9|
];
constraint_x5_x3=[
0,1,3.5|
0,2,2.2|
1,0,1.8|
1,2,3|
2,0,5.2|
2,1,5.2|
];
constraint_x6_x4=[
0,1,1.8|
0,2,4.4|
1,0,3.6|
1,2,8.7|
2,0,2.7|
2,1,0.96|
];
constraint_x6_x5=[
0,1,7.7|
0,2,5|
1,0,2.9|
1,2,1.6|
2,0,9.1|
2,1,1.8|
];
constraint_x7_x2=[
0,1,7|
0,2,6.2|
1,0,1.7|
1,2,1.5|
2,0,8.3|
2,1,8.1|
];
constraint_x7_x3=[
0,1,4.3|
0,2,1.8|
1,0,4.7|
1,2,7.9|
2,0,4|
2,1,9.8|
];
constraint_x7_x4=[
0,1,2.8|
0,2,7.6|
1,0,4.2|
1,2,5|
2,0,7.4|
2,1,3.5|
];
constraint_x7_x5=[
0,1,9.1|
0,2,5|
1,0,0.086|
1,2,6.1|
2,0,5.1|
2,1,1.6|
];
constraint_x8_x4=[
0,1,8.3|
0,2,3.9|
1,0,6.2|
1,2,2.6|
2,0,7.8|
2,1,4.3|
];
constraint_x8_x7=[
0,1,8.3|
0,2,3.6|
1,0,4.5|
1,2,1.1|
2,0,4.4|
2,1,0.47|
];
constraint_x9_x1=[
0,1,8.6|
0,2,9.9|
1,0,0.34|
1,2,7.1|
2,0,8.7|
2,1,3.9|
];
constraint_x9_x2=[
0,1,2.6|
0,2,10|
1,0,7.6|
1,2,3.6|
2,0,8.9|
2,1,1.7|
];
constraint_x9_x5=[
0,1,0.23|
0,2,6.5|
1,0,9.7|
1,2,2.9|
2,0,0.94|
2,1,2.9|
];
constraint_x9_x7=[
0,1,9.9|
0,2,5.6|
1,0,7.8|
1,2,5.3|
2,0,6.8|
2,1,5.3|
];
constraint_x10_x1=[
0,1,1.5|
0,2,3.5|
1,0,2.6|
1,2,0.43|
2,0,8.8|
2,1,2.3|
];
constraint_x10_x3=[
0,1,3.3|
0,2,7.3|
1,0,9.8|
1,2,7.8|
2,0,9.5|
2,1,6.4|
];
constraint_x10_x4=[
0,1,3.5|
0,2,5.2|
1,0,0.021|
1,2,6.5|
2,0,9|
2,1,1.2|
];
constraint_x10_x6=[
0,1,1.5|
0,2,1.7|
1,0,2.9|
1,2,6.4|
2,0,7.8|
2,1,9.7|
];
constraint_x10_x7=[
0,1,8|
0,2,2.6|
1,0,0.84|
1,2,6.9|
2,0,3.6|
2,1,8.9|
];
constraint_x10_x8=[
0,1,1.4|
0,2,2.1|
1,0,4.6|
1,2,6.4|
2,0,0.34|
2,1,6.3|
];
constraint_x10_x9=[
0,1,9.6|
0,2,0.075|
1,0,7.2|
1,2,6.1|
2,0,4.9|
2,1,0.09|
];
constraint_x1_y1=[
0,0,7|
0,1,2.4|
0,2,9.8|
1,0,10|
1,1,7.1|
1,2,9.3|
2,0,4.6|
2,1,9.8|
2,2,5|
];
constraint_x2_y2=[
0,0,5.9|
0,1,8.6|
0,2,3|
1,0,0.69|
1,1,5.3|
1,2,9.7|
2,0,8.2|
2,1,7.2|
2,2,9.3|
];
initial_distribution_y1=[0.53,0.39,0.072];
initial_distribution_y2=[0.31,0.33,0.36];
transition_y1=[
0.49,0.32,0.19|
0.25,0.29,0.46|
0.4,0.044,0.56|
];
transition_y2=[
0.097,0.49,0.42|
0.36,0.073,0.56|
0.54,0.39,0.073|
];
